20J7M/DAT/20J7MNNL-16.dat
20 7
34.1186 34.1186
16.9588 16.9588
21.4836 21.4836
19.8779 19.8779
22.4761 22.4761
16.835 16.835
23.8372 23.8372
28.0439 28.0439
17.0836 17.0836
24.0894 24.0894
30.9908 30.9908
31.3609 31.3609
30.6543 30.6543
33.0093 33.0093
22.6291 22.6291
26.3695 26.3695
25.6649 25.6649
31.5897 31.5897
18.5225 18.5225
28.8984 28.8984
504.4935