20J7M/SOL/20J7MNNL-16.sol
solution status: optimal solution found
objective value:                     70.5806714285714
x#1#1                                               1 	(obj:0)
x#2#3                                               1 	(obj:0)
x#3#2                                               1 	(obj:0)
x#4#5                                               1 	(obj:0)
x#5#4                                               1 	(obj:0)
x#6#6                                               1 	(obj:0)
x#7#3                               0.135660208521655 	(obj:0)
x#7#7                               0.864339791478345 	(obj:0)
x#8#7                                               1 	(obj:0)
x#9#5                                               1 	(obj:0)
x#10#4                                              1 	(obj:0)
x#11#4                                              1 	(obj:0)
x#12#3                                              1 	(obj:0)
x#13#2                                              1 	(obj:0)
x#14#1                              0.982111672510643 	(obj:0)
x#14#6                             0.0178883274893568 	(obj:0)
x#15#1                              0.350398226124803 	(obj:0)
x#15#2                              0.420333638306204 	(obj:0)
x#15#3                              0.229268135568996 	(obj:0)
x#16#6                                              1 	(obj:0)
x#17#6                                              1 	(obj:0)
x#18#1                              0.650924239005613 	(obj:0)
x#18#4                              0.349075760994387 	(obj:0)
x#19#2                              0.206831138523087 	(obj:0)
x#19#5                              0.793168861476913 	(obj:0)
x#20#4                                              1 	(obj:0)
z                                    70.5806714285714 	(obj:1)
